lsc.out
The optimum total cost for lsc problem is cost = 853945

The production units in each period are x [*] :=
 1 134   11  16   21 135   31 148   41 180   51 180   61  26   71 180   81  68
 2 156   12 180   22 176   32 120   42  15   52 109   62 100   72 122   82 150
 3   0   13 151   23 174   33   0   43 180   53   0   63  24   73   0   83   0
 4 180   14   0   24  31   34 149   44  25   54  76   64 180   74 180   84  40
 5 147   15 109   25 115   35 161   45  46   55 165   65  50   75  42   85  76
 6 144   16 180   26 170   36 180   46 117   56 100   66  91   76  39   86   0
 7 124   17 180   27 108   37  45   47   0   57 180   67  96   77 180   87 101
 8 180   18  85   28 170   38  57   48  38   58  41   68   0   78  26   88 180
 9  47   19 122   29   0   39   0   49 180   59 163   69 180   79 180   89 133
10  74   20  70   30 149   40 121   50   0   60   0   70  36   80  47   90  22
;

The storage inventory in each period are s [*] :=
 0   0   11   0   22   0   33   0   44   0   55   0   66   0   77  36   88   0
 1   0   12  65   23   0   34   0   45   0   56   0   67  76   78   0   89   0
 2  38   13 107   24   0   35   0   46  80   57  31   68   0   79   9   90   0
 3   5   14   0   25   0   36 134   47   0   58   0   69  76   80   0
 4   0   15   0   26   0   37   0   48   0   59 102   70   0   81   0
 5   0   16  54   27   0   38  40   49  94   60   0   71  20   82 104
 6   0   17  59   28  17   39   0   50   0   61   0   72 105   83   0
 7   1   18   0   29   0   40   0   51  66   62   0   73   0   84   0
 8   0   19   0   30   0   41 140   52  81   63   0   74 117   85  61
 9   0   20   0   31   0   42   0   53   0   64  49   75   0   86   0
10   0   21   0   32  73   43  64   54   0   65   0   76   0   87   5
;

